20J7M/DAT/20J7MNLL-3.dat
20 7
26.4544 26.4544
31.3472 31.3472
22.0112 22.0112
21.0694 21.0694
20.7578 20.7578
30.4371 30.4371
15.9335 15.9335
12.252 12.252
27.1983 27.1983
22.0339 22.0339
28.8388 28.8388
21.1733 21.1733
28.2519 28.2519
29.2757 29.2757
22.2046 22.2046
18.8027 18.8027
28.6279 28.6279
34.2426 34.2426
27.4584 27.4584
29.6758 29.6758
71.1495