20J7M/SOL/20J7MNLL-3.sol
solution status: optimal solution found
objective value:                              71.1495
x#1#6                                               1 	(obj:0)
x#2#2                               0.647923897509188 	(obj:0)
x#2#7                               0.352076102490812 	(obj:0)
x#3#4                                               1 	(obj:0)
x#4#5                                               1 	(obj:0)
x#5#5                                               1 	(obj:0)
x#6#7                                               1 	(obj:0)
x#7#6                                               1 	(obj:0)
x#8#4                                               1 	(obj:0)
x#9#1                                               1 	(obj:0)
x#10#1                              0.630160797679939 	(obj:0)
x#10#5                              0.369839202320061 	(obj:0)
x#11#1                              0.272608430309166 	(obj:0)
x#11#2                              0.727391569690834 	(obj:0)
x#12#5                                              1 	(obj:0)
x#13#3                              0.313787745248994 	(obj:0)
x#13#6                              0.686212254751006 	(obj:0)
x#14#3                                              1 	(obj:0)
x#15#1                                              1 	(obj:0)
x#16#4                                              1 	(obj:0)
x#17#3                                              1 	(obj:0)
x#18#2                              0.872065789396835 	(obj:0)
x#18#3                              0.127934210603165 	(obj:0)
x#19#4                              0.658581709058066 	(obj:0)
x#19#6                              0.341418290941934 	(obj:0)
x#20#7                                              1 	(obj:0)
z                                             71.1495 	(obj:1)
